Version identifier: 12.10.0.0 | 2019-11-26 | 843d4de
CPXPARAM_WorkMem                                 28672
Tried aggregator 2 times.
Aggregator did 40 substitutions.
Reduced MIP has 143 rows, 180 columns, and 669 nonzeros.
Reduced MIP has 180 binaries, 0 generals, 0 SOSs, and 0 indicators.
Presolve time = 0,00 sec. (0,62 ticks)
Found incumbent of value 120,000000 after 0,00 sec. (1,16 ticks)
Probing time = 0,00 sec. (0,20 ticks)
Tried aggregator 1 time.
Detecting symmetries...
MIP Presolve eliminated 15 rows and 0 columns.
MIP Presolve added 30 rows and 0 columns.
Reduced MIP has 158 rows, 180 columns, and 684 nonzeros.
Reduced MIP has 180 binaries, 0 generals, 0 SOSs, and 0 indicators.
Presolve time = 0,00 sec. (0,79 ticks)
Probing time = 0,00 sec. (0,20 ticks)
Clique table members: 449.
MIP emphasis: balance optimality and feasibility.
MIP search method: dynamic search.
Parallel mode: deterministic, using up to 16 threads.
Root relaxation solution time = 0,00 sec. (0,34 ticks)

        Nodes                                         Cuts/
   Node  Left     Objective  IInf  Best Integer    Best Bound    ItCnt     Gap

*     0+    0                          120,0000        0,0000           100,00%
*     0+    0                           81,0000        0,0000           100,00%
*     0+    0                           79,0000        0,0000           100,00%
      0     0       40,0000    91       79,0000       40,0000       43   49,37%
      0     0       40,0000    91       79,0000     Cuts: 139       94   49,37%
      0     0       40,0000    91       79,0000     Cuts: 133      157   49,37%
*     0+    0                           78,0000       40,0000            48,72%
*     0+    0                           72,0000       40,0000            44,44%
      0     2       41,3881    82       72,0000       40,0000      187   44,44%
Elapsed time = 0,06 sec. (19,03 ticks, tree = 0,02 MB, solutions = 5)

Clique cuts applied:  38
Cover cuts applied:  228
Mixed integer rounding cuts applied:  3
Zero-half cuts applied:  3

Root node processing (before b&c):
  Real time             =    0,05 sec. (18,95 ticks)
Parallel b&c, 16 threads:
  Real time             =    0,24 sec. (108,80 ticks)
  Sync time (average)   =    0,09 sec.
  Wait time (average)   =    0,00 sec.
                          ------------
Total (root+branch&cut) =    0,29 sec. (127,76 ticks)
